
(set-logic HORN)
(define-fun Z_2390 () Int 0)
(define-fun S_555 ((x Int)) Int (+ x 1))
(declare-fun diseqInt (Int Int) Bool)
(declare-fun unS_793 (Int Int) Bool)
(declare-fun isZ_517 (Int) Bool)
(declare-fun isS_517 (Int) Bool)
(assert (forall ((x_70806 Int))
	(unS_793 x_70806 (S_555 x_70806))))
(assert (isZ_517 Z_2390))
(assert (forall ((x_70808 Int))
	(isS_517 (S_555 x_70808))))
(assert (forall ((x_70809 Int))
	(diseqInt Z_2390 (S_555 x_70809))))
(assert (forall ((x_70810 Int))
	(diseqInt (S_555 x_70810) Z_2390)))
(assert (forall ((x_70811 Int) (x_70812 Int))
	(=> (diseqInt x_70811 x_70812) (diseqInt (S_555 x_70811) (S_555 x_70812)))))
(declare-fun add_422 (Int Int Int) Bool)
(declare-fun minus_417 (Int Int Int) Bool)
(declare-fun le_396 (Int Int) Bool)
(declare-fun ge_396 (Int Int) Bool)
(declare-fun lt_416 (Int Int) Bool)
(declare-fun gt_399 (Int Int) Bool)
(declare-fun mult_397 (Int Int Int) Bool)
(declare-fun div_396 (Int Int Int) Bool)
(declare-fun mod_398 (Int Int Int) Bool)
(assert (forall ((y_2690 Int))
	(add_422 y_2690 Z_2390 y_2690)))
(assert (forall ((x_70800 Int) (y_2690 Int) (r_520 Int))
	(=> (add_422 r_520 x_70800 y_2690) (add_422 (S_555 r_520) (S_555 x_70800) y_2690))))
(assert (forall ((y_2690 Int))
	(minus_417 Z_2390 Z_2390 y_2690)))
(assert (forall ((x_70800 Int) (y_2690 Int) (r_520 Int))
	(=> (minus_417 r_520 x_70800 y_2690) (minus_417 (S_555 r_520) (S_555 x_70800) y_2690))))
(assert (forall ((y_2690 Int))
	(le_396 Z_2390 y_2690)))
(assert (forall ((x_70800 Int) (y_2690 Int))
	(=> (le_396 x_70800 y_2690) (le_396 (S_555 x_70800) (S_555 y_2690)))))
(assert (forall ((y_2690 Int))
	(ge_396 y_2690 Z_2390)))
(assert (forall ((x_70800 Int) (y_2690 Int))
	(=> (ge_396 x_70800 y_2690) (ge_396 (S_555 x_70800) (S_555 y_2690)))))
(assert (forall ((y_2690 Int))
	(lt_416 Z_2390 (S_555 y_2690))))
(assert (forall ((x_70800 Int) (y_2690 Int))
	(=> (lt_416 x_70800 y_2690) (lt_416 (S_555 x_70800) (S_555 y_2690)))))
(assert (forall ((y_2690 Int))
	(gt_399 (S_555 y_2690) Z_2390)))
(assert (forall ((x_70800 Int) (y_2690 Int))
	(=> (gt_399 x_70800 y_2690) (gt_399 (S_555 x_70800) (S_555 y_2690)))))
(assert (forall ((y_2690 Int))
	(mult_397 Z_2390 Z_2390 y_2690)))
(assert (forall ((x_70800 Int) (y_2690 Int) (r_520 Int) (z_2391 Int))
	(=> (and (mult_397 r_520 x_70800 y_2690) (add_422 z_2391 r_520 y_2690)) (mult_397 z_2391 (S_555 x_70800) y_2690))))
(assert (forall ((x_70800 Int) (y_2690 Int))
	(=> (lt_416 x_70800 y_2690) (div_396 Z_2390 x_70800 y_2690))))
(assert (forall ((x_70800 Int) (y_2690 Int) (r_520 Int) (z_2391 Int))
	(=> (and (ge_396 x_70800 y_2690) (minus_417 z_2391 x_70800 y_2690) (div_396 r_520 z_2391 y_2690)) (div_396 (S_555 r_520) x_70800 y_2690))))
(assert (forall ((x_70800 Int) (y_2690 Int))
	(=> (lt_416 x_70800 y_2690) (mod_398 x_70800 x_70800 y_2690))))
(assert (forall ((x_70800 Int) (y_2690 Int) (r_520 Int) (z_2391 Int))
	(=> (and (ge_396 x_70800 y_2690) (minus_417 z_2391 x_70800 y_2690) (mod_398 r_520 z_2391 y_2690)) (mod_398 r_520 x_70800 y_2690))))
(declare-datatypes ((pair_124 0)) (((pair_125 (projpair_248 Int) (projpair_249 Int)))))
(declare-fun diseqpair_62 (pair_124 pair_124) Bool)
(declare-fun projpair_252 (Int pair_124) Bool)
(declare-fun projpair_253 (Int pair_124) Bool)
(declare-fun ispair_62 (pair_124) Bool)
(assert (forall ((x_70813 Int) (x_70814 Int))
	(projpair_252 x_70813 (pair_125 x_70813 x_70814))))
(assert (forall ((x_70813 Int) (x_70814 Int))
	(projpair_253 x_70814 (pair_125 x_70813 x_70814))))
(assert (forall ((x_70816 Int) (x_70817 Int))
	(ispair_62 (pair_125 x_70816 x_70817))))
(assert (forall ((x_70818 Int) (x_70819 Int) (x_70820 Int) (x_70821 Int))
	(=> (diseqInt x_70818 x_70820) (diseqpair_62 (pair_125 x_70818 x_70819) (pair_125 x_70820 x_70821)))))
(assert (forall ((x_70818 Int) (x_70819 Int) (x_70820 Int) (x_70821 Int))
	(=> (diseqInt x_70819 x_70821) (diseqpair_62 (pair_125 x_70818 x_70819) (pair_125 x_70820 x_70821)))))
(declare-datatypes ((list_319 0)) (((nil_359) (cons_316 (head_632 Int) (tail_635 list_319)))))
(declare-fun diseqlist_316 (list_319 list_319) Bool)
(declare-fun head_633 (Int list_319) Bool)
(declare-fun tail_637 (list_319 list_319) Bool)
(declare-fun isnil_359 (list_319) Bool)
(declare-fun iscons_316 (list_319) Bool)
(assert (forall ((x_70823 Int) (x_70824 list_319))
	(head_633 x_70823 (cons_316 x_70823 x_70824))))
(assert (forall ((x_70823 Int) (x_70824 list_319))
	(tail_637 x_70824 (cons_316 x_70823 x_70824))))
(assert (isnil_359 nil_359))
(assert (forall ((x_70826 Int) (x_70827 list_319))
	(iscons_316 (cons_316 x_70826 x_70827))))
(assert (forall ((x_70828 Int) (x_70829 list_319))
	(diseqlist_316 nil_359 (cons_316 x_70828 x_70829))))
(assert (forall ((x_70830 Int) (x_70831 list_319))
	(diseqlist_316 (cons_316 x_70830 x_70831) nil_359)))
(assert (forall ((x_70832 Int) (x_70833 list_319) (x_70834 Int) (x_70835 list_319))
	(=> (diseqInt x_70832 x_70834) (diseqlist_316 (cons_316 x_70832 x_70833) (cons_316 x_70834 x_70835)))))
(assert (forall ((x_70832 Int) (x_70833 list_319) (x_70834 Int) (x_70835 list_319))
	(=> (diseqlist_316 x_70833 x_70835) (diseqlist_316 (cons_316 x_70832 x_70833) (cons_316 x_70834 x_70835)))))
(declare-datatypes ((pair_126 0)) (((pair_127 (projpair_250 list_319) (projpair_251 list_319)))))
(declare-fun diseqpair_63 (pair_126 pair_126) Bool)
(declare-fun projpair_254 (list_319 pair_126) Bool)
(declare-fun projpair_255 (list_319 pair_126) Bool)
(declare-fun ispair_63 (pair_126) Bool)
(assert (forall ((x_70836 list_319) (x_70837 list_319))
	(projpair_254 x_70836 (pair_127 x_70836 x_70837))))
(assert (forall ((x_70836 list_319) (x_70837 list_319))
	(projpair_255 x_70837 (pair_127 x_70836 x_70837))))
(assert (forall ((x_70839 list_319) (x_70840 list_319))
	(ispair_63 (pair_127 x_70839 x_70840))))
(assert (forall ((x_70841 list_319) (x_70842 list_319) (x_70843 list_319) (x_70844 list_319))
	(=> (diseqlist_316 x_70841 x_70843) (diseqpair_63 (pair_127 x_70841 x_70842) (pair_127 x_70843 x_70844)))))
(assert (forall ((x_70841 list_319) (x_70842 list_319) (x_70843 list_319) (x_70844 list_319))
	(=> (diseqlist_316 x_70842 x_70844) (diseqpair_63 (pair_127 x_70841 x_70842) (pair_127 x_70843 x_70844)))))
(declare-datatypes ((Q_210 0)) (((Q_211 (projQ_12 list_319) (projQ_13 list_319)))))
(declare-fun diseqQ_3 (Q_210 Q_210) Bool)
(declare-fun projQ_14 (list_319 Q_210) Bool)
(declare-fun projQ_15 (list_319 Q_210) Bool)
(declare-fun isQ_5 (Q_210) Bool)
(assert (forall ((x_70845 list_319) (x_70846 list_319))
	(projQ_14 x_70845 (Q_211 x_70845 x_70846))))
(assert (forall ((x_70845 list_319) (x_70846 list_319))
	(projQ_15 x_70846 (Q_211 x_70845 x_70846))))
(assert (forall ((x_70848 list_319) (x_70849 list_319))
	(isQ_5 (Q_211 x_70848 x_70849))))
(assert (forall ((x_70850 list_319) (x_70851 list_319) (x_70852 list_319) (x_70853 list_319))
	(=> (diseqlist_316 x_70850 x_70852) (diseqQ_3 (Q_211 x_70850 x_70851) (Q_211 x_70852 x_70853)))))
(assert (forall ((x_70850 list_319) (x_70851 list_319) (x_70852 list_319) (x_70853 list_319))
	(=> (diseqlist_316 x_70851 x_70853) (diseqQ_3 (Q_211 x_70850 x_70851) (Q_211 x_70852 x_70853)))))
(declare-datatypes ((Maybe_8 0)) (((Nothing_8) (Just_8 (projJust_16 Int)))))
(declare-fun diseqMaybe_8 (Maybe_8 Maybe_8) Bool)
(declare-fun projJust_18 (Int Maybe_8) Bool)
(declare-fun isNothing_8 (Maybe_8) Bool)
(declare-fun isJust_8 (Maybe_8) Bool)
(assert (forall ((x_70855 Int))
	(projJust_18 x_70855 (Just_8 x_70855))))
(assert (isNothing_8 Nothing_8))
(assert (forall ((x_70857 Int))
	(isJust_8 (Just_8 x_70857))))
(assert (forall ((x_70858 Int))
	(diseqMaybe_8 Nothing_8 (Just_8 x_70858))))
(assert (forall ((x_70859 Int))
	(diseqMaybe_8 (Just_8 x_70859) Nothing_8)))
(assert (forall ((x_70860 Int) (x_70861 Int))
	(=> (diseqInt x_70860 x_70861) (diseqMaybe_8 (Just_8 x_70860) (Just_8 x_70861)))))
(declare-datatypes ((Maybe_9 0)) (((Nothing_9) (Just_9 (projJust_17 Q_210)))))
(declare-fun diseqMaybe_9 (Maybe_9 Maybe_9) Bool)
(declare-fun projJust_19 (Q_210 Maybe_9) Bool)
(declare-fun isNothing_9 (Maybe_9) Bool)
(declare-fun isJust_9 (Maybe_9) Bool)
(assert (forall ((x_70863 Q_210))
	(projJust_19 x_70863 (Just_9 x_70863))))
(assert (isNothing_9 Nothing_9))
(assert (forall ((x_70865 Q_210))
	(isJust_9 (Just_9 x_70865))))
(assert (forall ((x_70866 Q_210))
	(diseqMaybe_9 Nothing_9 (Just_9 x_70866))))
(assert (forall ((x_70867 Q_210))
	(diseqMaybe_9 (Just_9 x_70867) Nothing_9)))
(assert (forall ((x_70868 Q_210) (x_70869 Q_210))
	(=> (diseqQ_3 x_70868 x_70869) (diseqMaybe_9 (Just_9 x_70868) (Just_9 x_70869)))))
(declare-datatypes ((E_31 0)) (((Empty_6) (EnqL_6 (projEnqL_12 Int) (projEnqL_13 E_31)) (EnqR_6 (projEnqR_12 E_31) (projEnqR_13 Int)) (DeqL_6 (projDeqL_6 E_31)) (DeqR_6 (projDeqR_6 E_31)) (App_3 (projApp_12 E_31) (projApp_13 E_31)))))
(declare-fun diseqE_3 (E_31 E_31) Bool)
(declare-fun projEnqL_14 (Int E_31) Bool)
(declare-fun projEnqL_15 (E_31 E_31) Bool)
(declare-fun projEnqR_14 (E_31 E_31) Bool)
(declare-fun projEnqR_15 (Int E_31) Bool)
(declare-fun projDeqL_7 (E_31 E_31) Bool)
(declare-fun projDeqR_7 (E_31 E_31) Bool)
(declare-fun projApp_14 (E_31 E_31) Bool)
(declare-fun projApp_15 (E_31 E_31) Bool)
(declare-fun isEmpty_3 (E_31) Bool)
(declare-fun isEnqL_3 (E_31) Bool)
(declare-fun isEnqR_3 (E_31) Bool)
(declare-fun isDeqL_3 (E_31) Bool)
(declare-fun isDeqR_3 (E_31) Bool)
(declare-fun isApp_3 (E_31) Bool)
(assert (forall ((x_70871 Int) (x_70872 E_31))
	(projEnqL_14 x_70871 (EnqL_6 x_70871 x_70872))))
(assert (forall ((x_70871 Int) (x_70872 E_31))
	(projEnqL_15 x_70872 (EnqL_6 x_70871 x_70872))))
(assert (forall ((x_70874 E_31) (x_70875 Int))
	(projEnqR_14 x_70874 (EnqR_6 x_70874 x_70875))))
(assert (forall ((x_70874 E_31) (x_70875 Int))
	(projEnqR_15 x_70875 (EnqR_6 x_70874 x_70875))))
(assert (forall ((x_70877 E_31))
	(projDeqL_7 x_70877 (DeqL_6 x_70877))))
(assert (forall ((x_70879 E_31))
	(projDeqR_7 x_70879 (DeqR_6 x_70879))))
(assert (forall ((x_70881 E_31) (x_70882 E_31))
	(projApp_14 x_70881 (App_3 x_70881 x_70882))))
(assert (forall ((x_70881 E_31) (x_70882 E_31))
	(projApp_15 x_70882 (App_3 x_70881 x_70882))))
(assert (isEmpty_3 Empty_6))
(assert (forall ((x_70884 Int) (x_70885 E_31))
	(isEnqL_3 (EnqL_6 x_70884 x_70885))))
(assert (forall ((x_70886 E_31) (x_70887 Int))
	(isEnqR_3 (EnqR_6 x_70886 x_70887))))
(assert (forall ((x_70888 E_31))
	(isDeqL_3 (DeqL_6 x_70888))))
(assert (forall ((x_70889 E_31))
	(isDeqR_3 (DeqR_6 x_70889))))
(assert (forall ((x_70890 E_31) (x_70891 E_31))
	(isApp_3 (App_3 x_70890 x_70891))))
(assert (forall ((x_70892 Int) (x_70893 E_31))
	(diseqE_3 Empty_6 (EnqL_6 x_70892 x_70893))))
(assert (forall ((x_70894 E_31) (x_70895 Int))
	(diseqE_3 Empty_6 (EnqR_6 x_70894 x_70895))))
(assert (forall ((x_70896 E_31))
	(diseqE_3 Empty_6 (DeqL_6 x_70896))))
(assert (forall ((x_70897 E_31))
	(diseqE_3 Empty_6 (DeqR_6 x_70897))))
(assert (forall ((x_70898 E_31) (x_70899 E_31))
	(diseqE_3 Empty_6 (App_3 x_70898 x_70899))))
(assert (forall ((x_70900 Int) (x_70901 E_31))
	(diseqE_3 (EnqL_6 x_70900 x_70901) Empty_6)))
(assert (forall ((x_70902 E_31) (x_70903 Int))
	(diseqE_3 (EnqR_6 x_70902 x_70903) Empty_6)))
(assert (forall ((x_70904 E_31))
	(diseqE_3 (DeqL_6 x_70904) Empty_6)))
(assert (forall ((x_70905 E_31))
	(diseqE_3 (DeqR_6 x_70905) Empty_6)))
(assert (forall ((x_70906 E_31) (x_70907 E_31))
	(diseqE_3 (App_3 x_70906 x_70907) Empty_6)))
(assert (forall ((x_70908 Int) (x_70909 E_31) (x_70910 E_31) (x_70911 Int))
	(diseqE_3 (EnqL_6 x_70908 x_70909) (EnqR_6 x_70910 x_70911))))
(assert (forall ((x_70912 Int) (x_70913 E_31) (x_70914 E_31))
	(diseqE_3 (EnqL_6 x_70912 x_70913) (DeqL_6 x_70914))))
(assert (forall ((x_70915 Int) (x_70916 E_31) (x_70917 E_31))
	(diseqE_3 (EnqL_6 x_70915 x_70916) (DeqR_6 x_70917))))
(assert (forall ((x_70918 Int) (x_70919 E_31) (x_70920 E_31) (x_70921 E_31))
	(diseqE_3 (EnqL_6 x_70918 x_70919) (App_3 x_70920 x_70921))))
(assert (forall ((x_70922 E_31) (x_70923 Int) (x_70924 Int) (x_70925 E_31))
	(diseqE_3 (EnqR_6 x_70922 x_70923) (EnqL_6 x_70924 x_70925))))
(assert (forall ((x_70926 E_31) (x_70927 Int) (x_70928 E_31))
	(diseqE_3 (DeqL_6 x_70926) (EnqL_6 x_70927 x_70928))))
(assert (forall ((x_70929 E_31) (x_70930 Int) (x_70931 E_31))
	(diseqE_3 (DeqR_6 x_70929) (EnqL_6 x_70930 x_70931))))
(assert (forall ((x_70932 E_31) (x_70933 E_31) (x_70934 Int) (x_70935 E_31))
	(diseqE_3 (App_3 x_70932 x_70933) (EnqL_6 x_70934 x_70935))))
(assert (forall ((x_70936 E_31) (x_70937 Int) (x_70938 E_31))
	(diseqE_3 (EnqR_6 x_70936 x_70937) (DeqL_6 x_70938))))
(assert (forall ((x_70939 E_31) (x_70940 Int) (x_70941 E_31))
	(diseqE_3 (EnqR_6 x_70939 x_70940) (DeqR_6 x_70941))))
(assert (forall ((x_70942 E_31) (x_70943 Int) (x_70944 E_31) (x_70945 E_31))
	(diseqE_3 (EnqR_6 x_70942 x_70943) (App_3 x_70944 x_70945))))
(assert (forall ((x_70946 E_31) (x_70947 E_31) (x_70948 Int))
	(diseqE_3 (DeqL_6 x_70946) (EnqR_6 x_70947 x_70948))))
(assert (forall ((x_70949 E_31) (x_70950 E_31) (x_70951 Int))
	(diseqE_3 (DeqR_6 x_70949) (EnqR_6 x_70950 x_70951))))
(assert (forall ((x_70952 E_31) (x_70953 E_31) (x_70954 E_31) (x_70955 Int))
	(diseqE_3 (App_3 x_70952 x_70953) (EnqR_6 x_70954 x_70955))))
(assert (forall ((x_70956 E_31) (x_70957 E_31))
	(diseqE_3 (DeqL_6 x_70956) (DeqR_6 x_70957))))
(assert (forall ((x_70958 E_31) (x_70959 E_31) (x_70960 E_31))
	(diseqE_3 (DeqL_6 x_70958) (App_3 x_70959 x_70960))))
(assert (forall ((x_70961 E_31) (x_70962 E_31))
	(diseqE_3 (DeqR_6 x_70961) (DeqL_6 x_70962))))
(assert (forall ((x_70963 E_31) (x_70964 E_31) (x_70965 E_31))
	(diseqE_3 (App_3 x_70963 x_70964) (DeqL_6 x_70965))))
(assert (forall ((x_70966 E_31) (x_70967 E_31) (x_70968 E_31))
	(diseqE_3 (DeqR_6 x_70966) (App_3 x_70967 x_70968))))
(assert (forall ((x_70969 E_31) (x_70970 E_31) (x_70971 E_31))
	(diseqE_3 (App_3 x_70969 x_70970) (DeqR_6 x_70971))))
(assert (forall ((x_70972 Int) (x_70973 E_31) (x_70974 Int) (x_70975 E_31))
	(=> (diseqInt x_70972 x_70974) (diseqE_3 (EnqL_6 x_70972 x_70973) (EnqL_6 x_70974 x_70975)))))
(assert (forall ((x_70972 Int) (x_70973 E_31) (x_70974 Int) (x_70975 E_31))
	(=> (diseqE_3 x_70973 x_70975) (diseqE_3 (EnqL_6 x_70972 x_70973) (EnqL_6 x_70974 x_70975)))))
(assert (forall ((x_70976 E_31) (x_70977 Int) (x_70978 E_31) (x_70979 Int))
	(=> (diseqE_3 x_70976 x_70978) (diseqE_3 (EnqR_6 x_70976 x_70977) (EnqR_6 x_70978 x_70979)))))
(assert (forall ((x_70976 E_31) (x_70977 Int) (x_70978 E_31) (x_70979 Int))
	(=> (diseqInt x_70977 x_70979) (diseqE_3 (EnqR_6 x_70976 x_70977) (EnqR_6 x_70978 x_70979)))))
(assert (forall ((x_70980 E_31) (x_70981 E_31))
	(=> (diseqE_3 x_70980 x_70981) (diseqE_3 (DeqL_6 x_70980) (DeqL_6 x_70981)))))
(assert (forall ((x_70982 E_31) (x_70983 E_31))
	(=> (diseqE_3 x_70982 x_70983) (diseqE_3 (DeqR_6 x_70982) (DeqR_6 x_70983)))))
(assert (forall ((x_70984 E_31) (x_70985 E_31) (x_70986 E_31) (x_70987 E_31))
	(=> (diseqE_3 x_70984 x_70986) (diseqE_3 (App_3 x_70984 x_70985) (App_3 x_70986 x_70987)))))
(assert (forall ((x_70984 E_31) (x_70985 E_31) (x_70986 E_31) (x_70987 E_31))
	(=> (diseqE_3 x_70985 x_70987) (diseqE_3 (App_3 x_70984 x_70985) (App_3 x_70986 x_70987)))))
(declare-fun take_54 (list_319 Int list_319) Bool)
(assert (forall ((x_70636 Int) (y_2669 list_319))
	(=> (le_396 x_70636 Z_2390) (take_54 nil_359 x_70636 y_2669))))
(assert (forall ((x_70801 Int) (x_70682 list_319) (z_2377 Int) (xs_790 list_319) (x_70636 Int))
	(=> (and (gt_399 x_70636 Z_2390) (take_54 x_70682 x_70801 xs_790) (minus_417 x_70801 x_70636 (S_555 Z_2390))) (take_54 (cons_316 z_2377 x_70682) x_70636 (cons_316 z_2377 xs_790)))))
(assert (forall ((x_70636 Int) (y_2669 list_319))
	(=> (le_396 x_70636 Z_2390) (take_54 nil_359 x_70636 y_2669))))
(assert (forall ((x_70636 Int))
	(=> (gt_399 x_70636 Z_2390) (take_54 nil_359 x_70636 nil_359))))
(declare-fun tail_636 (list_319 list_319) Bool)
(assert (forall ((x_70685 list_319) (y_2670 Int))
	(tail_636 x_70685 (cons_316 y_2670 x_70685))))
(assert (tail_636 nil_359 nil_359))
(declare-fun length_63 (Int list_319) Bool)
(assert (forall ((x_70687 Int) (x_70688 Int) (y_2671 Int) (l_52 list_319))
	(=> (and (length_63 x_70688 l_52) (add_422 x_70687 (S_555 Z_2390) x_70688)) (length_63 x_70687 (cons_316 y_2671 l_52)))))
(assert (length_63 Z_2390 nil_359))
(declare-fun init_3 (list_319 list_319) Bool)
(assert (forall ((x_70691 list_319) (x_70640 Int) (x_70641 list_319) (y_2672 Int))
	(=> (init_3 x_70691 (cons_316 x_70640 x_70641)) (init_3 (cons_316 y_2672 x_70691) (cons_316 y_2672 (cons_316 x_70640 x_70641))))))
(assert (forall ((y_2672 Int))
	(init_3 nil_359 (cons_316 y_2672 nil_359))))
(assert (init_3 nil_359 nil_359))
(declare-fun fstL_2 (Maybe_8 Q_210) Bool)
(assert (forall ((x_70643 Int) (x_70644 list_319) (z_2379 list_319))
	(fstL_2 (Just_8 x_70643) (Q_211 (cons_316 x_70643 x_70644) z_2379))))
(assert (forall ((x_70646 Int) (x_70647 list_319) (y_2674 Int))
	(fstL_2 Nothing_8 (Q_211 nil_359 (cons_316 y_2674 (cons_316 x_70646 x_70647))))))
(assert (forall ((y_2674 Int))
	(fstL_2 (Just_8 y_2674) (Q_211 nil_359 (cons_316 y_2674 nil_359)))))
(assert (fstL_2 Nothing_8 (Q_211 nil_359 nil_359)))
(declare-fun fromMaybe_6 (Int Int Maybe_8) Bool)
(assert (forall ((x_70698 Int) (x_70648 Int))
	(fromMaybe_6 x_70698 x_70648 (Just_8 x_70698))))
(assert (forall ((x_70648 Int))
	(fromMaybe_6 x_70648 x_70648 Nothing_8)))
(declare-fun fromMaybe_7 (Q_210 Q_210 Maybe_9) Bool)
(assert (forall ((x_70700 Q_210) (x_70649 Q_210))
	(fromMaybe_7 x_70700 x_70649 (Just_9 x_70700))))
(assert (forall ((x_70649 Q_210))
	(fromMaybe_7 x_70649 x_70649 Nothing_9)))
(declare-fun empty_7 (Q_210) Bool)
(assert (empty_7 (Q_211 nil_359 nil_359)))
(declare-fun drop_61 (list_319 Int list_319) Bool)
(assert (forall ((x_70703 list_319) (x_70650 Int))
	(=> (le_396 x_70650 Z_2390) (drop_61 x_70703 x_70650 x_70703))))
(assert (forall ((x_70803 Int) (x_70704 list_319) (z_2382 Int) (xs_792 list_319) (x_70650 Int))
	(=> (and (gt_399 x_70650 Z_2390) (drop_61 x_70704 x_70803 xs_792) (minus_417 x_70803 x_70650 (S_555 Z_2390))) (drop_61 x_70704 x_70650 (cons_316 z_2382 xs_792)))))
(assert (forall ((x_70706 list_319) (x_70650 Int))
	(=> (le_396 x_70650 Z_2390) (drop_61 x_70706 x_70650 x_70706))))
(assert (forall ((x_70650 Int))
	(=> (gt_399 x_70650 Z_2390) (drop_61 nil_359 x_70650 nil_359))))
(declare-fun halve_3 (pair_126 list_319) Bool)
(assert (forall ((x_70710 list_319) (x_70711 list_319) (x_70708 Int) (k_18 Int) (x_70651 list_319))
	(=> (and (take_54 x_70710 k_18 x_70651) (drop_61 x_70711 k_18 x_70651) (length_63 x_70708 x_70651) (div_396 k_18 x_70708 (S_555 (S_555 Z_2390)))) (halve_3 (pair_127 x_70710 x_70711) x_70651))))
(declare-fun x_70652 (list_319 list_319 list_319) Bool)
(assert (forall ((x_70713 list_319) (z_2383 Int) (xs_793 list_319) (y_2678 list_319))
	(=> (x_70652 x_70713 xs_793 y_2678) (x_70652 (cons_316 z_2383 x_70713) (cons_316 z_2383 xs_793) y_2678))))
(assert (forall ((x_70714 list_319))
	(x_70652 x_70714 nil_359 x_70714)))
(declare-fun list_320 (list_319 E_31) Bool)
(assert (forall ((x_70715 list_319) (x_70716 list_319) (x_70717 list_319) (a_77 E_31) (b_72 E_31))
	(=> (and (list_320 x_70716 a_77) (list_320 x_70717 b_72) (x_70652 x_70715 x_70716 x_70717)) (list_320 x_70715 (App_3 a_77 b_72)))))
(assert (forall ((x_70719 list_319) (x_70720 list_319) (e_32 E_31))
	(=> (and (list_320 x_70720 e_32) (init_3 x_70719 x_70720)) (list_320 x_70719 (DeqR_6 e_32)))))
(assert (forall ((x_70722 list_319) (x_70723 list_319) (e_33 E_31))
	(=> (and (list_320 x_70723 e_33) (tail_636 x_70722 x_70723)) (list_320 x_70722 (DeqL_6 e_33)))))
(assert (forall ((x_70725 list_319) (x_70726 list_319) (e_34 E_31) (z_2384 Int))
	(=> (and (list_320 x_70726 e_34) (x_70652 x_70725 x_70726 (cons_316 z_2384 nil_359))) (list_320 x_70725 (EnqR_6 e_34 z_2384)))))
(assert (forall ((x_70729 list_319) (y_2679 Int) (e_35 E_31))
	(=> (list_320 x_70729 e_35) (list_320 (cons_316 y_2679 x_70729) (EnqL_6 y_2679 e_35)))))
(assert (list_320 nil_359 Empty_6))
(declare-fun reverse_16 (list_319 list_319) Bool)
(assert (forall ((x_70731 list_319) (x_70732 list_319) (y_2680 Int) (xs_794 list_319))
	(=> (and (reverse_16 x_70732 xs_794) (x_70652 x_70731 x_70732 (cons_316 y_2680 nil_359))) (reverse_16 x_70731 (cons_316 y_2680 xs_794)))))
(assert (reverse_16 nil_359 nil_359))
(declare-fun enqL_7 (Q_210 Int Q_210) Bool)
(assert (forall ((z_2385 Int) (x_70657 list_319) (xs_795 list_319) (x_70656 Int))
	(enqL_7 (Q_211 (cons_316 x_70656 xs_795) (cons_316 z_2385 x_70657)) x_70656 (Q_211 xs_795 (cons_316 z_2385 x_70657)))))
(assert (forall ((x_70738 list_319) (as_9 list_319) (bs_11 list_319) (xs_795 list_319) (x_70656 Int))
	(=> (and (reverse_16 x_70738 bs_11) (halve_3 (pair_127 as_9 bs_11) (cons_316 x_70656 xs_795))) (enqL_7 (Q_211 as_9 x_70738) x_70656 (Q_211 xs_795 nil_359)))))
(declare-fun mkQ_3 (Q_210 list_319 list_319) Bool)
(assert (forall ((x_70660 Int) (x_70661 list_319) (z_2386 Int) (x_70659 list_319))
	(mkQ_3 (Q_211 (cons_316 z_2386 x_70659) (cons_316 x_70660 x_70661)) (cons_316 z_2386 x_70659) (cons_316 x_70660 x_70661))))
(assert (forall ((x_70742 list_319) (as_10 list_319) (bs_12 list_319) (z_2386 Int) (x_70659 list_319))
	(=> (and (reverse_16 x_70742 bs_12) (halve_3 (pair_127 as_10 bs_12) (cons_316 z_2386 x_70659))) (mkQ_3 (Q_211 as_10 x_70742) (cons_316 z_2386 x_70659) nil_359))))
(assert (forall ((x_70745 list_319) (as_11 list_319) (bs_13 list_319) (y_2682 list_319))
	(=> (and (reverse_16 x_70745 bs_13) (halve_3 (pair_127 as_11 bs_13) y_2682)) (mkQ_3 (Q_211 x_70745 as_11) nil_359 y_2682))))
(declare-fun x_70662 (Q_210 Q_210 Q_210) Bool)
(assert (forall ((x_70746 Q_210) (x_70747 list_319) (x_70748 list_319) (x_70749 list_319) (x_70750 list_319) (vs_6 list_319) (ws_3 list_319) (xs_796 list_319) (ys_222 list_319))
	(=> (and (reverse_16 x_70747 ys_222) (x_70652 x_70748 xs_796 x_70747) (reverse_16 x_70749 vs_6) (x_70652 x_70750 x_70749 ws_3) (mkQ_3 x_70746 x_70748 x_70750)) (x_70662 x_70746 (Q_211 xs_796 ys_222) (Q_211 vs_6 ws_3)))))
(declare-fun deqL_7 (Maybe_9 Q_210) Bool)
(assert (forall ((x_70753 Q_210) (x_70665 Int) (xs_797 list_319) (z_2387 list_319))
	(=> (mkQ_3 x_70753 xs_797 z_2387) (deqL_7 (Just_9 x_70753) (Q_211 (cons_316 x_70665 xs_797) z_2387)))))
(assert (forall ((x_70668 Int) (x_70669 list_319) (x_70666 Int))
	(deqL_7 Nothing_9 (Q_211 nil_359 (cons_316 x_70666 (cons_316 x_70668 x_70669))))))
(assert (forall ((x_70756 Q_210) (x_70666 Int))
	(=> (empty_7 x_70756) (deqL_7 (Just_9 x_70756) (Q_211 nil_359 (cons_316 x_70666 nil_359))))))
(assert (deqL_7 Nothing_9 (Q_211 nil_359 nil_359)))
(declare-fun deqR_7 (Maybe_9 Q_210) Bool)
(assert (forall ((x_70758 Q_210) (x_70673 Int) (x_70674 list_319) (x_70671 Int) (y_2686 Int) (ys_223 list_319))
	(=> (mkQ_3 x_70758 (cons_316 x_70671 (cons_316 x_70673 x_70674)) ys_223) (deqR_7 (Just_9 x_70758) (Q_211 (cons_316 x_70671 (cons_316 x_70673 x_70674)) (cons_316 y_2686 ys_223))))))
(assert (forall ((x_70760 Q_210) (x_70675 Int) (x_70676 list_319) (x_70671 Int))
	(=> (mkQ_3 x_70760 (cons_316 x_70671 nil_359) x_70676) (deqR_7 (Just_9 x_70760) (Q_211 (cons_316 x_70671 nil_359) (cons_316 x_70675 x_70676))))))
(assert (forall ((x_70765 Q_210) (y_2686 Int) (ys_223 list_319))
	(=> (mkQ_3 x_70765 nil_359 ys_223) (deqR_7 (Just_9 x_70765) (Q_211 nil_359 (cons_316 y_2686 ys_223))))))
(assert (forall ((x_70673 Int) (x_70674 list_319) (x_70671 Int))
	(deqR_7 Nothing_9 (Q_211 (cons_316 x_70671 (cons_316 x_70673 x_70674)) nil_359))))
(assert (forall ((x_70770 Q_210) (x_70671 Int))
	(=> (empty_7 x_70770) (deqR_7 (Just_9 x_70770) (Q_211 (cons_316 x_70671 nil_359) nil_359)))))
(assert (deqR_7 Nothing_9 (Q_211 nil_359 nil_359)))
(declare-fun enqR_7 (Q_210 Q_210 Int) Bool)
(assert (forall ((x_70772 Q_210) (xs_798 list_319) (ys_224 list_319) (y_2687 Int))
	(=> (mkQ_3 x_70772 xs_798 (cons_316 y_2687 ys_224)) (enqR_7 x_70772 (Q_211 xs_798 ys_224) y_2687))))
(declare-fun queue_3 (Q_210 E_31) Bool)
(assert (forall ((x_70774 Q_210) (x_70775 Q_210) (x_70776 Q_210) (a_78 E_31) (b_73 E_31))
	(=> (and (queue_3 x_70775 a_78) (queue_3 x_70776 b_73) (x_70662 x_70774 x_70775 x_70776)) (queue_3 x_70774 (App_3 a_78 b_73)))))
(assert (forall ((x_70779 Q_210) (x_70780 Maybe_9) (r_519 Q_210) (e_36 E_31))
	(=> (and (deqR_7 x_70780 r_519) (fromMaybe_7 x_70779 r_519 x_70780) (queue_3 r_519 e_36)) (queue_3 x_70779 (DeqR_6 e_36)))))
(assert (forall ((x_70783 Q_210) (x_70784 Maybe_9) (q_212 Q_210) (e_37 E_31))
	(=> (and (deqL_7 x_70784 q_212) (fromMaybe_7 x_70783 q_212 x_70784) (queue_3 q_212 e_37)) (queue_3 x_70783 (DeqL_6 e_37)))))
(assert (forall ((x_70786 Q_210) (x_70787 Q_210) (e_38 E_31) (z_2389 Int))
	(=> (and (queue_3 x_70787 e_38) (enqR_7 x_70786 x_70787 z_2389)) (queue_3 x_70786 (EnqR_6 e_38 z_2389)))))
(assert (forall ((x_70789 Q_210) (x_70790 Q_210) (y_2688 Int) (e_39 E_31))
	(=> (and (queue_3 x_70790 e_39) (enqL_7 x_70789 y_2688 x_70790)) (queue_3 x_70789 (EnqL_6 y_2688 e_39)))))
(assert (forall ((x_70792 Q_210))
	(=> (empty_7 x_70792) (queue_3 x_70792 Empty_6))))
(assert (forall ((x_70794 Q_210) (x_70795 Maybe_8) (x_70679 Int) (y_2689 list_319) (e_40 E_31))
	(=> (and true (diseqMaybe_8 x_70795 (Just_8 x_70679)) (list_320 (cons_316 x_70679 y_2689) e_40) (queue_3 x_70794 e_40) (fstL_2 x_70795 x_70794)) false)))
(assert (forall ((x_70797 Q_210) (x_70798 Maybe_8) (e_40 E_31))
	(=> (and true (diseqMaybe_8 x_70798 Nothing_8) (list_320 nil_359 e_40) (queue_3 x_70797 e_40) (fstL_2 x_70798 x_70797)) false)))
(check-sat)
